============================[ Problem Statistics ]=============================|                                                                             ||  Number of variables:          4242                                         ||  Number of clauses:           10495                                         ||  Parse time:                   0.87 s                                       ||                                                                             |============================[ Search Statistics ]==============================| Conflicts |          ORIGINAL         |          LEARNT          | Progress ||           |    Vars  Clauses Literals |    Limit  Clauses Lit/Cl |          |===============================================================================|       100 |    1591     6700  1407101 |     2456      100     53 | 62.501 % ||       250 |    1591     6700  1407101 |     2702      250     75 | 62.495 % |===============================================================================restarts              : 4conflicts             : 473            (362 /sec)decisions             : 830            (0.00 % random) (635 /sec)propagations          : 13790          (10543 /sec)conflict literals     : 40367          (94.43 % deleted)CPU time              : 1.308 sSATISFIABLE